%%%%%%%%%%%%%%%%%%%%%%%%%%%%%%%%%%%%%%%%%%%%%%%%%%%%%%%%%%%%%%%%%%%%%%%%%
%FILE DATA:	Soccer Computational Problem for MiniZinc Models
%AUTHORS:	Robinson Duque, Alejandro Arbelaez, Juan Francisco Díaz
%CONTACT:  	robinson.duque@correounivalle.edu.co 
%LAST UPDATE:	May, 2018 
%ROUND ROBIN:2
%TEAMS:20
%PRESENT FIXTURE:22
%FIXTURES TO PLAY:16
%GAMES TO PLAY:160
%%%%%%%%%%%%%%%%%%%%%%%%%%%%%%%%%%%%%%%%%%%%%%%%%%%%%%%%%%%%%%%%%%%%%%%%%
%Number of teams:
n=20;

%For the purpose of our models, we offer two representations of the games to play, namely fixtures and games to play:

%Fixtures to play:
%fixtures=[|0,0,1,0,0,1,1,1,1,1,1,1,1,1,1,1,1,1,1,1
%|0,0,1,0,1,1,1,1,0,1,1,1,1,1,1,1,1,1,1,1
%|1,1,0,0,1,1,1,1,1,0,0,1,1,1,1,1,1,1,1,1
%|0,0,0,0,1,1,1,1,1,1,1,1,1,1,1,1,1,1,1,1
%|0,1,1,1,0,1,0,0,1,1,1,1,1,1,1,1,1,1,1,1
%|1,1,1,1,1,0,0,0,0,1,1,1,1,1,1,1,1,1,1,1
%|1,1,1,1,0,0,0,0,1,1,1,1,1,1,1,1,1,1,1,1
%|1,1,1,1,0,0,0,0,1,1,1,1,1,1,1,1,1,1,1,1
%|1,0,1,1,1,0,1,1,0,1,1,1,1,1,1,0,1,1,1,1
%|1,1,0,1,1,1,1,1,1,0,1,1,1,1,1,1,0,1,1,0
%|1,1,0,1,1,1,1,1,1,1,0,1,1,1,0,1,1,1,0,1
%|1,1,1,1,1,1,1,1,1,1,1,0,0,1,0,1,1,1,0,1
%|1,1,1,1,1,1,1,1,1,1,1,0,0,1,0,1,0,1,1,1
%|1,1,1,1,1,1,1,1,1,1,1,1,1,0,1,0,1,1,0,0
%|1,1,1,1,1,1,1,1,1,1,0,0,0,1,0,1,1,1,1,1
%|1,1,1,1,1,1,1,1,0,1,1,1,1,0,1,0,1,0,1,1
%|1,1,1,1,1,1,1,1,1,0,1,1,0,1,1,1,0,0,1,1
%|1,1,1,1,1,1,1,1,1,1,1,1,1,1,1,0,0,0,1,0
%|1,1,1,1,1,1,1,1,1,1,0,0,1,0,1,1,1,1,0,1
%|1,1,1,1,1,1,1,1,1,0,1,1,1,0,1,1,1,0,1,0|];

%Played Fixtures:
%PlayedFixtures=[|0,2,1,2,2,1,1,1,1,1,1,1,1,1,1,1,1,1,1,1
%|2,0,1,2,1,1,1,1,2,1,1,1,1,1,1,1,1,1,1,1
%|1,1,0,2,1,1,1,1,1,2,2,1,1,1,1,1,1,1,1,1
%|2,2,2,0,1,1,1,1,1,1,1,1,1,1,1,1,1,1,1,1
%|2,1,1,1,0,1,2,2,1,1,1,1,1,1,1,1,1,1,1,1
%|1,1,1,1,1,0,2,2,2,1,1,1,1,1,1,1,1,1,1,1
%|1,1,1,1,2,2,0,2,1,1,1,1,1,1,1,1,1,1,1,1
%|1,1,1,1,2,2,2,0,1,1,1,1,1,1,1,1,1,1,1,1
%|1,2,1,1,1,2,1,1,0,1,1,1,1,1,1,2,1,1,1,1
%|1,1,2,1,1,1,1,1,1,0,1,1,1,1,1,1,2,1,1,2
%|1,1,2,1,1,1,1,1,1,1,0,1,1,1,2,1,1,1,2,1
%|1,1,1,1,1,1,1,1,1,1,1,0,2,1,2,1,1,1,2,1
%|1,1,1,1,1,1,1,1,1,1,1,2,0,1,2,1,2,1,1,1
%|1,1,1,1,1,1,1,1,1,1,1,1,1,0,1,2,1,1,2,2
%|1,1,1,1,1,1,1,1,1,1,2,2,2,1,0,1,1,1,1,1
%|1,1,1,1,1,1,1,1,2,1,1,1,1,2,1,0,1,2,1,1
%|1,1,1,1,1,1,1,1,1,2,1,1,2,1,1,1,0,2,1,1
%|1,1,1,1,1,1,1,1,1,1,1,1,1,1,1,2,2,0,1,2
%|1,1,1,1,1,1,1,1,1,1,2,2,1,2,1,1,1,1,0,1
%|1,1,1,1,1,1,1,1,1,2,1,1,1,2,1,1,1,2,1,0|];

%Games to play:
games=[|3,1|3,2|5,2|5,3|5,4|6,1|6,2|6,3|6,4|6,5|7,1|7,2|7,3|7,4|8,1|8,2|8,3|8,4|9,1|9,3|9,4|9,5|9,7|9,8|10,1|10,2|10,4|10,5|10,6|10,7|10,8|10,9|11,1|11,2|11,4|11,5|11,6|11,7|11,8|11,9|11,10|12,1|12,2|12,3|12,4|12,5|12,6|12,7|12,8|12,9|12,10|12,11|13,1|13,2|13,3|13,4|13,5|13,6|13,7|13,8|13,9|13,10|13,11|14,1|14,2|14,3|14,4|14,5|14,6|14,7|14,8|14,9|14,10|14,11|14,12|14,13|15,1|15,2|15,3|15,4|15,5|15,6|15,7|15,8|15,9|15,10|15,14|16,1|16,2|16,3|16,4|16,5|16,6|16,7|16,8|16,10|16,11|16,12|16,13|16,15|17,1|17,2|17,3|17,4|17,5|17,6|17,7|17,8|17,9|17,11|17,12|17,14|17,15|17,16|18,1|18,2|18,3|18,4|18,5|18,6|18,7|18,8|18,9|18,10|18,11|18,12|18,13|18,14|18,15|19,1|19,2|19,3|19,4|19,5|19,6|19,7|19,8|19,9|19,10|19,13|19,15|19,16|19,17|19,18|20,1|20,2|20,3|20,4|20,5|20,6|20,7|20,8|20,9|20,11|20,12|20,13|20,15|20,16|20,17|20,19|];

%Played Games:
%PlayedGames=[|2,1|2,1|3,1|3,2|4,1|4,1|4,2|4,2|4,3|4,3|5,1|5,1|5,2|5,3|5,4|6,1|6,2|6,3|6,4|6,5|7,1|7,2|7,3|7,4|7,5|7,5|7,6|7,6|8,1|8,2|8,3|8,4|8,5|8,5|8,6|8,6|8,7|8,7|9,1|9,2|9,2|9,3|9,4|9,5|9,6|9,6|9,7|9,8|10,1|10,2|10,3|10,3|10,4|10,5|10,6|10,7|10,8|10,9|11,1|11,2|11,3|11,3|11,4|11,5|11,6|11,7|11,8|11,9|11,10|12,1|12,2|12,3|12,4|12,5|12,6|12,7|12,8|12,9|12,10|12,11|13,1|13,2|13,3|13,4|13,5|13,6|13,7|13,8|13,9|13,10|13,11|13,12|13,12|14,1|14,2|14,3|14,4|14,5|14,6|14,7|14,8|14,9|14,10|14,11|14,12|14,13|15,1|15,2|15,3|15,4|15,5|15,6|15,7|15,8|15,9|15,10|15,11|15,11|15,12|15,12|15,13|15,13|15,14|16,1|16,2|16,3|16,4|16,5|16,6|16,7|16,8|16,9|16,9|16,10|16,11|16,12|16,13|16,14|16,14|16,15|17,1|17,2|17,3|17,4|17,5|17,6|17,7|17,8|17,9|17,10|17,10|17,11|17,12|17,13|17,13|17,14|17,15|17,16|18,1|18,2|18,3|18,4|18,5|18,6|18,7|18,8|18,9|18,10|18,11|18,12|18,13|18,14|18,15|18,16|18,16|18,17|18,17|19,1|19,2|19,3|19,4|19,5|19,6|19,7|19,8|19,9|19,10|19,11|19,11|19,12|19,12|19,13|19,14|19,14|19,15|19,16|19,17|19,18|20,1|20,2|20,3|20,4|20,5|20,6|20,7|20,8|20,9|20,10|20,10|20,11|20,12|20,13|20,14|20,14|20,15|20,16|20,17|20,18|20,18|20,19|];

%Played Games - Win Results:
%% 0  0  0  0  0  0  0  0  0  0  0  0  0  0  0  0  0  0  0  0
%% 0  0  0  0  0  0  0  0  0  0  0  0  0  0  0  0  0  0  0  0
%% 0  1  0  0  1  1  1  1  1  0  0  0  1  0  0  0  0  0  0  1
%% 0  0  0  0  1  1  1  0  0  0  0  0  1  0  1  0  0  0  0  1
%% 0  0  0  0  0  1  0  0  0  1  0  0  0  0  0  0  0  0  0  1
%% 0  1  0  0  0  0  0  0  0  1  0  0  1  0  0  0  0  0  0  0
%% 0  0  0  0  0  0  0  0  0  0  0  0  1  0  0  0  0  0  0  0
%% 1  0  0  0  0  0  0  0  0  0  0  0  0  0  0  0  0  0  0  0
%% 0  0  0  0  0  0  0  0  0  0  0  0  0  0  0  0  0  0  0  0
%% 1  1  0  0  0  0  0  1  0  0  0  0  0  0  1  0  0  0  0  0
%% 1  1  0  1  1  1  1  1  0  0  0  0  0  1  0  0  1  0  2  0
%% 1  1  1  0  0  0  1  1  1  1  1  0  0  1  0  0  1  0  2  1
%% 0  1  0  0  0  0  0  1  1  1  0  0  0  0  0  0  0  0  0  0
%% 0  0  1  1  1  0  1  0  0  1  0  0  0  0  0  0  1  0  0  0
%% 0  0  0  0  0  0  0  0  0  0  0  0  0  0  0  0  0  0  0  0
%% 1  0  1  1  0  0  1  1  0  1  1  0  1  2  0  0  1  0  1  0
%% 1  0  1  0  1  1  0  0  1  0  0  0  0  0  1  0  0  0  0  1
%% 0  1  1  1  0  0  1  1  1  0  0  1  1  0  1  2  0  0  0  0
%% 0  0  0  1  1  0  1  1  0  0  0  0  0  0  0  0  1  0  0  1
%% 0  0  0  0  0  1  0  0  1  0  0  0  0  0  1  0  0  0  0  0
%Played Games - Tie Results:
%% 0  2  1  2  2  1  1  0  1  0  0  0  1  1  1  0  0  1  1  1
%% 2  0  0  2  1  0  1  1  2  0  0  0  0  1  1  1  1  0  1  1
%% 1  0  0  2  0  0  0  0  0  2  2  0  0  0  1  0  0  0  1  0
%% 2  2  2  0  0  0  0  1  1  1  0  1  0  0  0  0  1  0  0  0
%% 2  1  0  0  0  0  2  2  1  0  0  1  1  0  1  1  0  1  0  0
%% 1  0  0  0  0  0  2  2  2  0  0  1  0  1  1  1  0  1  1  0
%% 1  1  0  0  2  2  0  2  1  1  0  0  0  0  1  0  1  0  0  1
%% 0  1  0  1  2  2  2  0  1  0  0  0  0  1  1  0  1  0  0  1
%% 1  2  0  1  1  2  1  1  0  1  1  0  0  1  1  2  0  0  1  0
%% 0  0  2  1  0  0  1  0  1  0  1  0  0  0  0  0  2  1  1  2
%% 0  0  2  0  0  0  0  0  1  1  0  0  1  0  2  0  0  1  0  1
%% 0  0  0  1  1  1  0  0  0  0  0  0  2  0  2  1  0  0  0  0
%% 1  0  0  0  1  0  0  0  0  0  1  2  0  1  2  0  2  0  1  1
%% 1  1  0  0  0  1  0  1  1  0  0  0  1  0  1  0  0  1  2  2
%% 1  1  1  0  1  1  1  1  1  0  2  2  2  1  0  1  0  0  1  0
%% 0  1  0  0  1  1  0  0  2  0  0  1  0  0  1  0  0  0  0  1
%% 0  1  0  1  0  0  1  1  0  2  0  0  2  0  0  0  0  2  0  0
%% 1  0  0  0  1  1  0  0  0  1  1  0  0  1  0  0  2  0  1  2
%% 1  1  1  0  0  1  0  0  1  1  0  0  1  2  1  0  0  1  0  0
%% 1  1  0  0  0  0  1  1  0  2  1  0  1  2  0  1  0  2  0  0
%Played Games - Lose Results:
%% 0  0  0  0  0  0  0  1  0  1  1  1  0  0  0  1  1  0  0  0
%% 0  0  1  0  0  1  0  0  0  1  1  1  1  0  0  0  0  1  0  0
%% 0  0  0  0  0  0  0  0  0  0  0  1  0  1  0  1  1  1  0  0
%% 0  0  0  0  0  0  0  0  0  0  1  0  0  1  0  1  0  1  1  0
%% 0  0  1  1  0  0  0  0  0  0  1  0  0  1  0  0  1  0  1  0
%% 0  0  1  1  1  0  0  0  0  0  1  0  0  0  0  0  1  0  0  1
%% 0  0  1  1  0  0  0  0  0  0  1  1  0  1  0  1  0  1  1  0
%% 0  0  1  0  0  0  0  0  0  1  1  1  1  0  0  1  0  1  1  0
%% 0  0  1  0  0  0  0  0  0  0  0  1  1  0  0  0  1  1  0  1
%% 0  0  0  0  1  1  0  0  0  0  0  1  1  1  0  1  0  0  0  0
%% 0  0  0  0  0  0  0  0  0  0  0  1  0  0  0  1  0  0  0  0
%% 0  0  0  0  0  0  0  0  0  0  0  0  0  0  0  0  0  1  0  0
%% 0  0  1  1  0  1  1  0  0  0  0  0  0  0  0  1  0  1  0  0
%% 0  0  0  0  0  0  0  0  0  0  1  1  0  0  0  2  0  0  0  0
%% 0  0  0  1  0  0  0  0  0  1  0  0  0  0  0  0  1  1  0  1
%% 0  0  0  0  0  0  0  0  0  0  0  0  0  0  0  0  0  2  0  0
%% 0  0  0  0  0  0  0  0  0  0  1  1  0  1  0  1  0  0  1  0
%% 0  0  0  0  0  0  0  0  0  0  0  0  0  0  0  0  0  0  0  0
%% 0  0  0  0  0  0  0  0  0  0  2  2  0  0  0  1  0  0  0  0
%% 0  0  1  1  1  0  0  0  0  0  0  1  0  0  0  0  1  0  1  0

%%Initial points:
iPoints=[16, 15, 33, 29, 22, 22, 16, 16, 16, 24, 42, 47, 24, 30, 17, 44, 31, 44, 29, 22];

%%Initial positions:
%iPositions=[19, 20, 5, 9, 14, 13, 18, 17, 16, 11, 4, 1, 10, 7, 15, 2, 6, 3, 8, 12];

%%Position Constraints:
%numberPositionConstraints=2;

%%Total Fixtures:
%totalFixtures=38;

%%Fixtures to Play:
%fixturesToPlay=16;

%%Position Constraints Built With
%wantedPoints=[3, 1, 3, 0, 0, 0, 0, 0, 0, 1, 0, 0, 1, 3, 3, 1, 3, 1, 3, 1, 1, 1, 3, 1, 3, 3, 1, 0, 3, 0, 1, 3, 3, 0, 1, 0, 0, 1, 1, 0, 0, 1, 1, 0, 0, 0, 0, 0, 0, 0, 3, 0, 3, 1, 0, 0, 3, 1, 0, 0, 1, 1, 1, 1, 0, 1, 1, 3, 1, 1, 0, 0, 1, 0, 3, 1, 3, 0, 1, 3, 0, 1, 1, 0, 3, 3, 1, 3, 1, 0, 1, 1, 3, 1, 0, 3, 1, 1, 3, 1, 3, 1, 0, 0, 3, 3, 0, 1, 3, 3, 0, 1, 0, 1, 0, 3, 0, 1, 1, 0, 3, 3, 0, 1, 1, 1, 0, 0, 3, 3, 1, 0, 1, 1, 3, 0, 3, 1, 3, 1, 1, 1, 3, 3, 0, 0, 1, 0, 0, 0, 0, 1, 1, 0, 3, 1, 0, 3, 3, 3];

%POSITION CONSTRAINTS
%%[|teamID, operator, position|...]
%%operators index:
%%%1 for =  operator
%%%2 for >  operator
%%%3 for >= operator
%%%4 for <  operator
%%%5 for <= operator

positionConstraints=[|17,1,8|9,1,14|];

%SCORE VECTOR CONSTRAINTS
%%[|teamID, operator, wantedPoints|...]
%%operators index:
%%%1 for =  operator
%%%2 for >  operator
%%%3 for >= operator
%%%4 for <  operator
%%%5 for <= operator

%scoreVectorConstraints=[|17,1,50|9,1,41|];

%Instance Features:
%features=T,FP,TF,C,C/T,C/TF,FP/TF,FP/T,FP*C/T,FP*T/C,(C/T)*(FP/TF),Distance,Distance/C,Distance/T,Distance/(C*T)
%values=20,16,38,2,0.1,0.05263157894736842,0.4210526315789473,0.8,1.6,160.0,0.04210526315789474,4,2.0,0.2,0.1



gamesOfEveryTeam=[16,16,16,16,16,16,16,16,16,16,16,16,16,16,16,16,16,16,16,16];
weights=[|35,33,0,32|61,18,0,21|6,24,0,70|0,76,0,24|39,8,0,53|23,69,0,8|57,10,0,33|27,38,0,35|33,7,0,60|98,0,0,2|71,26,0,3|99,1,0,0|71,7,0,22|32,41,0,27|73,1,0,26|89,4,0,7|26,19,0,55|95,2,0,3|16,73,0,11|13,33,0,54|75,10,0,15|85,15,0,0|86,7,0,7|74,10,0,16|66,1,0,33|45,33,0,22|16,27,0,57|5,49,0,46|12,40,0,48|46,22,0,32|13,23,0,64|49,49,0,2|97,0,0,3|87,5,0,8|33,15,0,52|35,61,0,4|13,37,0,50|70,30,0,0|79,14,0,7|89,8,0,3|66,21,0,13|73,20,0,7|27,32,0,41|11,7,0,82|60,1,0,39|8,69,0,23|18,60,0,22|57,11,0,32|89,3,0,8|31,11,0,58|40,56,0,4|1,42,0,57|59,10,0,31|46,34,0,20|42,47,0,11|69,31,0,0|46,33,0,21|52,31,0,17|25,18,0,57|65,25,0,10|33,33,0,34|14,28,0,58|12,53,0,35|44,35,0,21|99,1,0,0|94,2,0,4|46,7,0,47|77,20,0,3|17,48,0,35|0,73,0,27|47,19,0,34|79,7,0,14|44,54,0,2|31,23,0,46|30,35,0,35|87,6,0,7|28,51,0,21|67,20,0,13|60,15,0,25|78,10,0,12|49,39,0,12|38,15,0,47|57,36,0,7|82,17,0,1|14,82,0,4|5,61,0,34|97,0,0,3|100,0,0,0|52,32,0,16|88,12,0,0|17,39,0,44|51,41,0,8|1,28,0,71|0,96,0,4|64,21,0,15|69,28,0,3|98,0,0,2|94,3,0,3|91,5,0,4|29,48,0,23|91,3,0,6|5,30,0,65|58,20,0,22|87,8,0,5|70,14,0,16|90,1,0,9|24,13,0,63|76,15,0,9|46,32,0,22|21,51,0,28|5,60,0,35|70,21,0,9|31,15,0,54|19,63,0,18|39,18,0,43|28,57,0,15|93,5,0,2|13,37,0,50|16,45,0,39|7,27,0,66|50,19,0,31|17,0,0,83|16,4,0,80|2,25,0,73|62,26,0,12|6,75,0,19|15,1,0,84|56,0,0,44|19,41,0,40|95,3,0,2|91,5,0,4|3,61,0,36|17,55,0,28|62,15,0,23|24,3,0,73|83,13,0,4|73,3,0,24|15,30,0,55|6,71,0,23|35,39,0,26|31,40,0,29|26,10,0,64|48,49,0,3|7,25,0,68|48,28,0,24|21,53,0,26|99,1,0,0|78,21,0,1|49,33,0,18|34,19,0,47|4,53,0,43|59,6,0,35|19,4,0,77|68,9,0,23|26,54,0,20|2,37,0,61|25,69,0,6|63,34,0,3|57,30,0,13|57,7,0,36|];